# Solution for model GasLib-40
# Objective value = 6.9406218542016191e+01
loadshed[innode_1] 0
loadshed[innode_2] 0
loadshed[innode_3] 0
loadshed[innode_4] 0
loadshed[innode_5] 0
loadshed[innode_6] 0
loadshed[innode_7] 0
loadshed[innode_8] 0
loadshed[source_1] -5.2468727356850930e-02
loadshed[source_2] 2.2422157502304441e-01
loadshed[source_3] 2.6727616485509387e-01
loadshed[sink_1] 7.6946604247839612e-01
loadshed[sink_2] 0
loadshed[sink_3] 0
loadshed[sink_4] 0
loadshed[sink_5] 0
loadshed[sink_6] 0
loadshed[sink_7] 0
loadshed[sink_8] 0
loadshed[sink_9] 5.6560578711739762e-01
loadshed[sink_10] 0
loadshed[sink_11] 0
loadshed[sink_12] 1
loadshed[sink_13] 0
loadshed[sink_14] 0
loadshed[sink_15] 0
loadshed[sink_16] 0
loadshed[sink_17] 0
loadshed[sink_18] 0
loadshed[sink_19] 0
loadshed[sink_20] 0
loadshed[sink_21] 1
loadshed[sink_22] 0
loadshed[sink_23] 0
loadshed[sink_24] 9.0887529144468671e-01
loadshed[sink_25] 0
loadshed[sink_26] 0
loadshed[sink_27] 0
loadshed[sink_28] 0
loadshed[sink_29] 0
flow[source_1,sink_3] 1.6638507346026881e+02
flow[innode_1,sink_16] 1.6354166666666970e+01
flow[innode_6,sink_13] -1.3573479657894225e+00
flow[sink_13,sink_14] -1.7711514632456090e+01
flow[sink_14,sink_10] -3.4065681299122758e+01
flow[sink_25,sink_26] 91.1278320902909
flow[sink_26,sink_9] 0
flow[sink_9,sink_18] -7.10415535651756
flow[sink_26,sink_4] 7.4773665423624152e+01
flow[sink_4,sink_20] 5.8419498756957594e+01
flow[sink_18,sink_6] -2.3458322023184227e+01
flow[sink_25,innode_8] -1.3367674012693243e+02
flow[sink_6,sink_7] -59.9368461201521
flow[sink_6,sink_22] 2.0124357430301231e+01
flow[sink_7,sink_24] 1.4902686711650204e+00
flow[sink_22,sink_1] 3.7701907636345631e+00
flow[sink_24,sink_21] 0
flow[sink_21,sink_12] 0
flow[sink_7,sink_5] -7.7781281457983766e+01
flow[sink_5,sink_17] -9.4135448124650438e+01
flow[sink_17,sink_4] 0
flow[sink_17,sink_8] -1.1048961479131711e+02
flow[sink_3,sink_23] 16.3541666666697
flow[sink_8,sink_20] -1.2684378145798378e+02
flow[sink_25,sink_20] 84.7784493676929
flow[sink_25,sink_15] -5.7226360031928678e+01
flow[sink_15,sink_29] -7.3580526698595349e+01
flow[sink_29,sink_28] 1.6354166666667879e+01
flow[sink_29,sink_2] 1.6354166666684250e+01
flow[sink_2,sink_15] 0
flow[sink_29,innode_7] -1.2264302669861385e+02
flow[innode_4,sink_19] 4.4763681595269205e+01
flow[sink_19,innode_3] 4.0566201590109550e+01
flow[innode_4,innode_5] 7.1072833037187650e+01
flow[sink_27,innode_5] -7.1072833037187650e+01
flow[sink_27,sink_19] 5.4718666370520978e+01
flow[sink_10,sink_11] 3.2708333333333641e+01
flow[sink_10,innode_2] -4.2561979709013514e+01
flow[sink_10,innode_3] -4.0566201590109550e+01
flow[innode_6,sink_25] 1.3573479657894225e+00
flow[sink_11,innode_1] 1.6354166666666970e+01
flow[sink_19,innode_2] 4.2561979709013514e+01
flow[source_3,innode_4] 1.1583651463245685e+02
flow[source_2,innode_7] 1.2264302669861385e+02
flow[sink_3,innode_8] 1.3367674012693243e+02
pressure[innode_1] 7.6798481478106524e+01
pressure[innode_2] 7.9199759200064861e+01
pressure[innode_3] 7.9109929940267563e+01
pressure[innode_4] 81.01325
pressure[innode_5] 8.0964362357754922e+01
pressure[innode_6] 7.5299744796827966e+01
pressure[innode_7] 81.01325
pressure[innode_8] 8.0457088260824236e+01
pressure[source_1] 81.01325
pressure[source_2] 81.01325
pressure[source_3] 81.01325
pressure[sink_1] 1.0132500000000002e+00
pressure[sink_2] 7.7318759990853522e+01
pressure[sink_3] 8.0457088260824236e+01
pressure[sink_4] 5.9374747754271873e+01
pressure[sink_5] 3.5068123294713487e+01
pressure[sink_6] 1.8967065574457207e+00
pressure[sink_7] 2.7194965868574896e+00
pressure[sink_8] 4.6249593960474527e+01
pressure[sink_9] 1.01325
pressure[sink_10] 7.6950182785710069e+01
pressure[sink_11] 7.6798481478106524e+01
pressure[sink_12] 1.01325
pressure[sink_13] 7.5307227629329446e+01
pressure[sink_14] 7.5338923893451678e+01
pressure[sink_15] 7.5577348405597547e+01
pressure[sink_16] 7.5776831643288844e+01
pressure[sink_17] 4.2080533749437429e+01
pressure[sink_18] 1.2702995148232921e+00
pressure[sink_19] 7.9199759200064861e+01
pressure[sink_20] 5.5088821689617404e+01
pressure[sink_21] 1.01325
pressure[sink_22] 1.2584849102764584e+00
pressure[sink_23] 8.0292370249164449e+01
pressure[sink_24] 1.01325
pressure[sink_25] 7.5299744796827966e+01
pressure[sink_26] 6.8881665099116759e+01
pressure[sink_27] 8.0374589172020762e+01
pressure[sink_28] 77.4377472157
pressure[sink_29] 7.7733029489317175e+01
interdiction[source_1,sink_3] 0
interdiction[innode_1,sink_16] 0
interdiction[innode_6,sink_13] 0
interdiction[sink_13,sink_14] 0
interdiction[sink_14,sink_10] 0
interdiction[sink_25,sink_26] 0
interdiction[sink_26,sink_9] 1
interdiction[sink_9,sink_18] 0
interdiction[sink_26,sink_4] 0
interdiction[sink_4,sink_20] 0
interdiction[sink_18,sink_6] 0
interdiction[sink_25,innode_8] 0
interdiction[sink_6,sink_7] 0
interdiction[sink_6,sink_22] 0
interdiction[sink_7,sink_24] 0
interdiction[sink_22,sink_1] 0
interdiction[sink_24,sink_21] 0
interdiction[sink_21,sink_12] 0
interdiction[sink_7,sink_5] 0
interdiction[sink_5,sink_17] 0
interdiction[sink_17,sink_4] 1
interdiction[sink_17,sink_8] 0
interdiction[sink_3,sink_23] 0
interdiction[sink_8,sink_20] 0
interdiction[sink_25,sink_20] 0
interdiction[sink_25,sink_15] 0
interdiction[sink_15,sink_29] 0
interdiction[sink_29,sink_28] 0
interdiction[sink_29,sink_2] 0
interdiction[sink_2,sink_15] 1
interdiction[sink_29,innode_7] 0
interdiction[innode_4,sink_19] 0
interdiction[sink_19,innode_3] 0
interdiction[innode_4,innode_5] 0
interdiction[sink_27,innode_5] 0
interdiction[sink_27,sink_19] 0
interdiction[sink_10,sink_11] 0
interdiction[sink_10,innode_2] 0
interdiction[sink_10,innode_3] 0
interdiction[innode_6,sink_25] 0
interdiction[sink_11,innode_1] 0
interdiction[sink_19,innode_2] 0
interdiction[source_3,innode_4] 0
interdiction[source_2,innode_7] 0
interdiction[sink_3,innode_8] 0
WCcheckFlow[source_1,sink_3] 39
WCcheckFlow[innode_1,sink_16] 1
WCcheckFlow[innode_6,sink_13] 13
WCcheckFlow[sink_13,sink_14] 12
WCcheckFlow[sink_14,sink_10] 11
WCcheckFlow[sink_25,sink_26] 15
WCcheckFlow[sink_26,sink_9] 0
WCcheckFlow[sink_9,sink_18] -1
WCcheckFlow[sink_26,sink_4] 14
WCcheckFlow[sink_4,sink_20] 13
WCcheckFlow[sink_18,sink_6] -2
WCcheckFlow[sink_25,innode_8] -36
WCcheckFlow[sink_6,sink_7] -5
WCcheckFlow[sink_6,sink_22] 2
WCcheckFlow[sink_7,sink_24] 3
WCcheckFlow[sink_22,sink_1] 1
WCcheckFlow[sink_24,sink_21] 2
WCcheckFlow[sink_21,sink_12] 1
WCcheckFlow[sink_7,sink_5] -9
WCcheckFlow[sink_5,sink_17] -10
WCcheckFlow[sink_17,sink_4] 0
WCcheckFlow[sink_17,sink_8] -11
WCcheckFlow[sink_3,sink_23] 1
WCcheckFlow[sink_8,sink_20] -12
WCcheckFlow[sink_25,sink_20] 0
WCcheckFlow[sink_25,sink_15] 6
WCcheckFlow[sink_15,sink_29] 5
WCcheckFlow[sink_29,sink_28] 1
WCcheckFlow[sink_29,sink_2] 1
WCcheckFlow[sink_2,sink_15] 0
WCcheckFlow[sink_29,innode_7] 2
WCcheckFlow[innode_4,sink_19] -4
WCcheckFlow[sink_19,innode_3] -5
WCcheckFlow[innode_4,innode_5] 2
WCcheckFlow[sink_27,innode_5] -1
WCcheckFlow[sink_27,sink_19] 0
WCcheckFlow[sink_10,sink_11] 3
WCcheckFlow[sink_10,innode_2] 1
WCcheckFlow[sink_10,innode_3] 6
WCcheckFlow[innode_6,sink_25] -14
WCcheckFlow[sink_11,innode_1] 2
WCcheckFlow[sink_19,innode_2] 0
WCcheckFlow[source_3,innode_4] -1
WCcheckFlow[source_2,innode_7] -1
WCcheckFlow[sink_3,innode_8] 37
